000 000 000 000 000 000 000 000 -99 -99 -99 -99 -99 000 000 -99 -99 -99 000 000 000 000 000 000 000 000 -99 000 000 -99 000
000 000 000 000 000 000 000 000 000 -99 -99 -99 -99 000 000 000 -99 -99 -99 000 000 000 000 000 000 000 000 000 000 -99 000
000 000 000 000 000 000 000 000 000 000 -99 -99 -99 -99 000 000 000 -99 -99 000 000 000 000 000 000 000 000 000 000 -99 -99
000 000 000 000 000 000 000 -99 000 000 -99 -99 -99 -99 000 000 000 -99 -99 -99 000 000 000 000 000 000 000 000 000 -99 -99
000 000 000 000 000 -99 000 -99 000 000 -99 -99 000 000 000 000 -99 -99 -99 -99 000 000 000 000 000 000 000 000 -99 -99 -99
000 000 000 000 000 -99 000 000 -99 000 -99 -99 000 000 000 000 -99 -99 -99 -99 000 000 000 000 000 000 -99 -99 -99 -99 -99
000 000 000 000 000 -99 -99 000 000 000 000 -99 000 000 000 000 000 000 -99 -99 000 000 000 000 000 000 -99 -99 -99 -99 -99
000 000 000 000 000 -99 -99 000 000 000 000 -99 000 000 000 000 000 000 000 -99 000 000 000 000 000 -99 -99 -99 -99 000 000
000 000 000 000 000 -99 -99 000 000 000 000 000 000 -99 -99 -99 000 000 000 -99 000 000 000 000 000 -99 -99 -99 -99 000 000
000 000 000 000 000 -99 -99 000 000 000 000 000 000 -99 -99 000 -99 000 000 000 000 000 000 000 000 000 -99 -99 -99 -99 000
000 000 000 000 000 000 000 000 000 000 000 000 000 -99 000 000 000 000 000 000 000 000 000 000 000 -99 -99 -99 000 000 000
000 000 000 000 000 000 000 000 000 000 000 000 -99 -99 000 000 000 000 000 000 000 -99 -99 000 000 010 -99 -99 000 000 000
000 000 000 000 000 000 000 000 000 000 000 000 000 -99 000 000 000 000 000 000 -99 -99 -99 -99 000 003 000 000 000 000 000
000 000 -99 000 000 000 000 000 000 000 000 000 000 -99 -99 000 000 000 000 -99 -99 -99 -99 000 000 000 000 000 000 000 000
000 000 000 000 000 000 000 -99 000 -99 000 000 -99 -99 -99 000 000 000 000 -99 -99 -99 -99 000 000 000 000 000 000 000 000
000 -99 -99 000 000 000 000 000 000 -99 -99 -99 -99 -99 -99 -99 -99 000 -99 -99 -99 000 -99 -99 000 000 000 000 000 000 000
000 -99 -99 -99 -99 -99 000 000 000 -99 -99 -99 -99 000 -99 -99 000 000 -99 -99 -99 -99 -99 000 000 -99 000 000 000 000 000
000 000 -99 -99 -99 -99 000 000 000 -99 -99 -99 -99 -99 -99 000 000 000 -99 -99 -99 -99 -99 -99 -99 000 000 000 -99 -99 000
000 000 000 -99 -99 -99 000 000 000 000 -99 -99 -99 -99 -99 000 000 000 000 -99 -99 000 -99 000 000 -99 000 -99 -99 000 -99
000 000 000 000 000 -99 000 000 000 000 000 000 -99 -99 -99 000 000 000 -99 -99 000 000 000 -99 -99 -99 -99 -99 -99 -99 -99
000 000 000 000 000 000 -99 000 000 000 000 000 -99 -99 -99 000 000 000 000 000 000 000 000 -99 -99 -99 -99 -99 -99 -99 -99
000 000 000 000 000 000 000 -99 000 000 -99 000 -99 -99 000 000 000 000 000 000 000 000 000 -99 -99 -99 -99 -99 -99 -99 -99
000 000 000 000 000 000 000 000 000 000 -99 -99 -99 000 000 000 000 000 000 000 000 000 000 -99 -99 -99 -99 -99 -99 -99 -99
000 000 000 000 000 000 000 000 000 000 -99 -99 000 000 000 000 000 000 000 000 000 000 000 -99 -99 -99 -99 -99 -99 -99 -99
000 000 000 000 000 000 000 000 000 000 000 -99 000 000 000 000 000 000 000 000 000 000 -99 -99 -99 -99 -99 -99 -99 -99 -99
000 000 000 000 000 000 000 000 000 000 000 -99 -99 000 000 000 000 000 000 000 000 -99 -99 -99 -99 -99 -99 -99 -99 -99 -99
000 000 000 000 000 000 000 000 000 000 -99 -99 -99 -99 -99 000 000 000 000 000 000 000 000 -99 -99 -99 -99 -99 -99 -99 -99
000 000 000 000 000 000 000 000 000 000 -99 -99 -99 -99 000 000 000 000 000 -99 -99 000 000 -99 -99 -99 -99 -99 -99 -99 -99
000 000 000 000 000 000 000 000 000 000 -99 -99 -99 -99 000 000 000 000 000 -99 000 000 -99 -99 -99 -99 -99 -99 -99 -99 -99
000 000 000 -99 000 000 000 000 000 000 -99 -99 -99 -99 000 000 000 000 000 -99 000 000 -99 -99 -99 -99 -99 -99 -99 -99 -99
000 000 000 000 000 000 000 000 000 000 -99 -99 -99 -99 000 000 000 000 000 000 000 000 -99 -99 -99 -99 -99 -99 -99 -99 -99
000 000 000 000 000 000 000 000 000 000 -99 -99 -99 -99 000 000 000 000 000 -99 -99 000 -99 000 000 000 -99 -99 -99 -99 000
000 000 000 000 000 000 000 000 000 000 -99 -99 -99 -99 000 000 000 000 -99 -99 -99 -99 000 000 000 000 -99 -99 000 000 000
000 000 000 000 000 000 000 000 000 -99 -99 -99 -99 000 000 000 000 000 -99 -99 -99 000 000 000 000 000 000 000 000 000 000
000 000 000 000 000 000 000 000 000 -99 -99 -99 000 000 000 000 000 000 -99 -99 000 000 000 000 000 000 000 000 000 000 000
000 000 000 000 000 -99 000 000 000 000 -99 -99 000 000 000 000 000 000 000 000 000 000 000 000 000 000 000 000 000 000 000
000 000 -99 000 000 -99 -99 000 000 000 -99 000 000 000 000 000 000 000 000 000 000 000 -99 -99 000 000 000 000 000 -99 000
000 -99 -99 000 000 -99 -99 000 000 -99 -99 000 000 000 000 000 000 000 000 000 000 000 -99 000 000 -99 -99 000 -99 -99 000
000 -99 000 000 000 000 -99 -99 -99 -99 -99 000 000 000 000 000 000 000 000 000 000 000 000 000 000 000 -99 -99 -99 -99 -99
000 -99 000 000 000 -99 -99 -99 -99 -99 006 000 000 000 000 000 000 000 -99 000 -99 -99 000 000 000 000 -99 -99 -99 -99 -99
000 000 000 000 000 -99 -99 000 -99 010 001 000 000 000 -99 000 000 000 -99 -99 -99 000 000 000 000 000 -99 -99 -99 -99 -99
000 000 -99 000 -99 -99 -99 000 -99 015 000 000 000 000 000 -99 -99 -99 -99 000 -99 000 000 000 000 -99 -99 -99 -99 -99 -99
000 000 -99 -99 -99 -99 -99 000 000 002 000 000 000 000 000 -99 -99 000 000 000 -99 000 000 000 000 000 -99 -99 -99 -99 -99
000 -99 -99 -99 -99 -99 -99 -99 001 000 000 000 000 000 000 -99 000 000 000 000 000 000 000 -99 000 000 -99 -99 -99 -99 -99
000 -99 -99 -99 -99 -99 -99 -99 -99 000 000 000 000 000 -99 -99 000 000 000 000 -99 -99 -99 000 000 -99 -99 -99 -99 -99 -99
-99 -99 -99 -99 -99 -99 -99 -99 -99 -99 000 000 000 -99 -99 -99 000 000 000 000 -99 -99 -99 000 000 -99 -99 -99 -99 -99 -99
-99 -99 -99 -99 -99 -99 -99 -99 -99 -99 000 000 000 -99 -99 -99 -99 -99 -99 000 000 000 000 000 -99 -99 000 -99 -99 -99 -99
-99 -99 -99 -99 -99 -99 -99 -99 -99 -99 -99 -99 -99 -99 -99 -99 -99 000 000 000 000 000 000 -99 -99 -99 000 -99 -99 -99 -99
-99 -99 -99 -99 -99 000 -99 -99 -99 -99 -99 -99 -99 -99 -99 -99 -99 000 000 000 000 000 000 -99 -99 000 000 000 -99 -99 -99
-99 -99 -99 -99 -99 000 000 -99 -99 -99 -99 -99 -99 -99 -99 -99 000 000 000 -99 000 000 000 -99 -99 000 000 -99 -99 -99 -99
-99 -99 -99 -99 -99 -99 000 -99 -99 -99 -99 -99 000 -99 -99 -99 000 000 000 000 000 000 -99 -99 -99 -99 -99 000 000 -99 -99
-99 -99 -99 -99 -99 -99 -99 -99 -99 -99 -99 -99 000 -99 -99 -99 -99 000 000 000 000 -99 -99 -99 -99 -99 -99 -99 -99 -99 -99
-99 -99 -99 -99 -99 -99 -99 -99 -99 -99 -99 000 -99 -99 -99 -99 -99 000 000 000 000 -99 -99 -99 -99 -99 -99 -99 -99 -99 -99
-99 -99 -99 -99 -99 -99 -99 -99 -99 -99 -99 -99 -99 -99 -99 -99 -99 000 000 000 -99 -99 -99 -99 -99 -99 -99 -99 -99 -99 -99
-99 -99 -99 -99 -99 -99 -99 -99 -99 -99 -99 -99 -99 -99 -99 -99 -99 -99 -99 -99 -99 -99 -99 -99 -99 -99 -99 -99 -99 -99 -99
